NAME : EIL75B.601.tour
COMMENT : Cost = 0_601
COMMENT : Found by LKH [Keld Helsgaun] Sun Sep 17 16:52:40 2017
TYPE : TOUR
DIMENSION : 75
TOUR_SECTION
1
42
32
50
16
39
71
57
9
10
52
34
6
45
33
51
26
12
53
56
14
5
46
68
70
59
69
19
36
35
20
60
27
73
29
47
28
44
4
75
25
11
38
8
31
43
3
15
48
23
17
49
24
54
30
37
64
65
58
13
18
7
66
74
67
2
72
61
21
63
41
40
55
22
62
-1
EOF
